\ Model Fischetti_diff_copy
\ LP format - for model browsing. Use MPS format to capture full model detail.
Minimize
 
Subject To
 R0: C0 <= 2.512308835983276
 R1: C0 >= 1.512308835983276
 R2: C1 <= 2.498758673667908
 R3: C1 >= 1.498758673667908
 R4: 2.879850149154663 C0 - 0.8426412343978882 C1 - C2 + C10
   = -0.5241518020629883
 R5: - 1.255256772041321 C0 + 2.670398712158203 C1 - C3 + C11
   = -2.376555442810059
 R6: C2 - 1500 C15 <= 0
 R7: C10 + 1500 C15 <= 1500
 R10: C3 - 1500 C16 <= 0
 R11: C11 + 1500 C16 <= 1500
 R14: - 3.976522988080978 C2 + 1.323892880558968 C3 - 1500 C7
   >= -1498.096657156944
 R15: 1.527164632081986 C2 - 3.258859108805656 C3 - 1500 C9
   >= -1496.670511215925
 R16: C7 + C9 >= 1
Bounds
 C0 free
 C1 free
 C2 free
 C3 free
Binaries
 C7 C9 C15 C16
End
